p cnf 252 463
e 1 2 3 4 5 6 7 8 9 10 11 12 13 14 15 16 17 18 19 20 21 22 23 24 25 26 27 28 29 30 31 32 33 34 35 36 37 38 39 40 41 42 43 44 45 46 47 48 49 50 51 52 53 54 55 56 57 58 59 60 61 62 63 64 65 66 67 68 69 70 71 72 73 74 75 76 77 78 79 80 81 82 83 84 85 86 87 88 89 90 91 92 93 94 95 96 97 98 99 100 101 102 103 104 105 106 107 108 109 110 111 112 113 114 115 116 117 118 119 120 121 122 123 124 125 126 127 128 129 130 131 132 133 134 135 136 137 138 139 140 141 142 143 144 145 146 147 148 149 150 151 152 153 154 155 156 157 158 159 160 161 162 163 164 165 166 167 168 169 170 171 172 173 174 175 176 177 178 179 180 181 182 183 184 185 186 187 188 189 190 191 192 193 194 195 196 197 198 199 200 201 202 203 204 205 206 207 208 209 210 211 212 213 214 215 216 217 218 219 220 221 222 223 224 225 226 227 228 229 230 231 232 233 234 235 236 237 238 239 240 241 242 243 244 245 246 247 248 249 250 251 252 0
154 0
-47 0
-50 0
-140 0
-30 0
-104 0
150 0
-56 0
-95 0
-195 0
158 0
-14 0
-16 0
-89 0
-11 0
-63 0
-202 0
-62 0
-64 0
-143 0
-42 0
-119 0
-203 0
-199 0
-41 0
-59 0
-39 0
-198 0
-20 0
-48 0
-107 0
-44 0
-125 0
157 0
-31 0
-206 0
-19 0
-200 0
-131 0
-146 0
151 0
156 0
-32 0
-6 0
-40 0
165 0
167 0
-3 0
-27 0
161 0
-28 0
-53 0
-54 0
-60 0
-194 0
170 0
-134 0
155 0
168 0
-207 0
-7 0
-57 0
-122 0
-52 0
-2 0
-17 0
-38 0
-92 0
-101 0
-116 0
153 0
-197 0
-9 0
-18 0
-49 0
-61 0
-26 0
-29 0
-15 0
-51 0
169 0
1 0
-5 0
-8 0
-205 0
-214 0
-213 0
-208 0
-37 0
-149 0
-211 0
-210 0
-55 0
-58 0
-98 0
163 0
164 0
-196 0
-172 0
-36 0
-110 0
-34 0
-45 0
152 0
-128 0
162 0
216 0
-22 0
-25 0
-13 0
160 0
171 0
-215 0
-35 0
-4 0
-46 0
159 0
-252 0
-10 0
-12 0
-204 0
-24 0
-113 0
-137 0
-43 0
166 0
-212 0
-209 0
-201 0
-23 0
-21 0
-33 0
-87 88 0
87 -88 0
-90 91 0
90 -91 0
-93 94 0
93 -94 0
-96 97 0
96 -97 0
-99 100 0
99 -100 0
-102 103 0
102 -103 0
-105 106 0
105 -106 0
-108 109 0
108 -109 0
-111 112 0
111 -112 0
-114 115 0
114 -115 0
-117 118 0
117 -118 0
-120 121 0
120 -121 0
-123 124 0
123 -124 0
-126 127 0
126 -127 0
-129 130 0
129 -130 0
-132 133 0
132 -133 0
-135 136 0
135 -136 0
-138 139 0
138 -139 0
-141 142 0
141 -142 0
-144 145 0
144 -145 0
-147 148 0
147 -148 0
65 -88 0
65 -91 0
65 -94 0
65 -97 0
65 -100 0
65 -103 0
65 -106 0
65 -109 0
65 -112 0
65 -115 0
65 -118 0
65 -121 0
65 -124 0
65 -127 0
65 -130 0
65 -133 0
65 -136 0
65 -139 0
65 -142 0
65 -145 0
65 -148 0
66 -88 0
67 -91 0
68 -94 0
69 -97 0
70 -100 0
71 -103 0
72 -106 0
73 -109 0
74 -112 0
75 -115 0
76 -118 0
77 -121 0
78 -124 0
79 -127 0
80 -130 0
81 -133 0
82 -136 0
83 -139 0
84 -142 0
85 -145 0
86 -148 0
217 -88 -91 0
-217 88 0
-217 91 0
218 -94 -97 -100 0
-218 94 0
-218 97 0
-218 100 0
219 -103 -106 0
-219 103 0
-219 106 0
220 -124 -127 -130 0
-220 124 0
-220 127 0
-220 130 0
221 -133 -136 -139 0
-221 133 0
-221 136 0
-221 139 0
222 -142 -145 -148 0
-222 142 0
-222 145 0
-222 148 0
223 -94 -103 0
-223 94 0
-223 103 0
224 -124 -133 -142 0
-224 124 0
-224 133 0
-224 142 0
225 -88 -97 0
-225 88 0
-225 97 0
226 -127 -136 -145 0
-226 127 0
-226 136 0
-226 145 0
227 -91 -100 -106 0
-227 91 0
-227 100 0
-227 106 0
228 -112 -115 -121 0
-228 112 0
-228 115 0
-228 121 0
229 -130 -139 -148 0
-229 130 0
-229 139 0
-229 148 0
230 -97 -106 0
-230 97 0
-230 106 0
231 -109 -121 0
-231 109 0
-231 121 0
232 -124 -136 -148 0
-232 124 0
-232 136 0
-232 148 0
233 -91 -97 -103 0
-233 91 0
-233 97 0
-233 103 0
234 -109 -124 0
-234 109 0
-234 124 0
235 -91 -112 -130 0
-235 91 0
-235 112 0
-235 130 0
236 -97 -136 0
-236 97 0
-236 136 0
237 -100 -115 -139 0
-237 100 0
-237 115 0
-237 139 0
238 -118 -145 0
-238 118 0
-238 145 0
239 -106 -121 -148 0
-239 106 0
-239 121 0
-239 148 0
240 -88 -145 0
-240 88 0
-240 145 0
241 -91 -115 -148 0
-241 91 0
-241 115 0
-241 148 0
242 -127 0
-242 127 0
243 -106 -115 -130 0
-243 106 0
-243 115 0
-243 130 0
244 -94 -139 0
-244 94 0
-244 139 0
245 -103 -118 -148 0
-245 103 0
-245 118 0
-245 148 0
246 -100 -133 0
-246 100 0
-246 133 0
247 -106 -118 -142 0
-247 106 0
-247 118 0
-247 142 0
248 -148 0
-248 148 0
249 -91 -148 0
-249 91 0
-249 148 0
250 -103 -130 0
-250 103 0
-250 130 0
251 -106 -124 0
-251 106 0
-251 124 0
217 218 219 220 221 222 223 224 225 226 227 228 229 230 231 232 233 234 235 236 237 238 239 240 241 242 243 244 245 246 247 248 249 250 251 0
-66 173 0
66 -173 0
-67 174 0
-173 174 0
67 -174 173 0
-67 -173 0
-68 175 0
-174 175 0
68 -175 174 0
-68 -174 0
-69 176 0
-175 176 0
69 -176 175 0
-69 -175 0
-70 177 0
-176 177 0
70 -177 176 0
-70 -176 0
-71 178 0
-177 178 0
71 -178 177 0
-71 -177 0
-72 179 0
-178 179 0
72 -179 178 0
-72 -178 0
-73 180 0
-179 180 0
73 -180 179 0
-73 -179 0
-74 181 0
-180 181 0
74 -181 180 0
-74 -180 0
-75 182 0
-181 182 0
75 -182 181 0
-75 -181 0
-76 183 0
-182 183 0
76 -183 182 0
-76 -182 0
-77 184 0
-183 184 0
77 -184 183 0
-77 -183 0
-78 185 0
-184 185 0
78 -185 184 0
-78 -184 0
-79 186 0
-185 186 0
79 -186 185 0
-79 -185 0
-80 187 0
-186 187 0
80 -187 186 0
-80 -186 0
-81 188 0
-187 188 0
81 -188 187 0
-81 -187 0
-82 189 0
-188 189 0
82 -189 188 0
-82 -188 0
-83 190 0
-189 190 0
83 -190 189 0
-83 -189 0
-84 191 0
-190 191 0
84 -191 190 0
-84 -190 0
-85 192 0
-191 192 0
85 -192 191 0
-85 -191 0
-86 193 0
-192 193 0
86 -193 192 0
-86 -192 0
-65 193 0
-66 88 0
-66 65 0
-67 91 0
-67 65 0
-68 94 0
-68 65 0
-69 97 0
-69 65 0
-70 100 0
-70 65 0
-71 103 0
-71 65 0
-72 106 0
-72 65 0
-73 109 0
-73 65 0
-74 112 0
-74 65 0
-75 115 0
-75 65 0
-76 118 0
-76 65 0
-77 121 0
-77 65 0
-78 124 0
-78 65 0
-79 127 0
-79 65 0
-80 130 0
-80 65 0
-81 133 0
-81 65 0
-82 136 0
-82 65 0
-83 139 0
-83 65 0
-84 142 0
-84 65 0
-85 145 0
-85 65 0
-86 148 0
-86 65 0
